S = 4;
start = [|0,0,0,0,15,2,0,0,8,5,4,10,11,0,0,0|
0,3,0,0,1,0,0,0,11,6,0,0,8,15,0,0|
11,0,0,15,0,9,8,5,0,3,0,0,13,2,0,0|
0,1,0,0,3,0,6,0,0,0,0,15,0,5,0,0|
0,0,2,0,0,13,0,0,5,1,0,0,15,8,16,0|
0,0,0,0,0,0,0,15,0,0,0,0,7,0,0,0|
7,0,15,0,14,0,0,11,0,4,0,2,1,12,0,0|
13,5,0,0,2,3,7,0,12,0,15,16,6,0,0,4|
0,2,8,0,0,0,11,0,0,0,0,0,3,0,0,5|
0,13,0,0,0,6,0,0,0,7,0,0,0,0,0,0|
0,0,1,0,0,0,2,14,0,0,0,0,9,0,0,0|
0,0,0,6,0,0,0,0,0,0,8,0,2,16,1,12|
0,0,0,0,10,8,0,0,0,0,12,0,4,0,0,0|
0,0,9,8,0,12,0,0,0,0,0,0,0,0,0,0|
2,0,10,0,0,0,0,0,0,0,0,0,0,0,0,6|
0,0,11,0,0,0,0,0,0,10,0,0,5,0,3,0|];